
Gurobi 11.0.3 (linux64) logging started Mon Dec 15 16:18:11 2025

Set parameter LogFile to value "./log/train/IS_900_5/IS_2.lp.log"
Set parameter TimeLimit to value 3600
Gurobi Optimizer version 11.0.3 build v11.0.3rc0 (linux64 - "Ubuntu 22.04.5 LTS")

CPU model: AMD Ryzen 9 9900X 12-Core Processor, instruction set [SSE2|AVX|AVX2|AVX512]
Thread count: 12 physical cores, 24 logical processors, using up to 24 threads

Optimize a model with 4624 rows, 900 columns and 9066 nonzeros
Model fingerprint: 0x852c6a2d
Variable types: 0 continuous, 900 integer (900 binary)
Coefficient statistics:
  Matrix range     [1e+00, 1e+00]
  Objective range  [1e+00, 1e+00]
  Bounds range     [1e+00, 1e+00]
  RHS range        [1e+00, 1e+00]
Found heuristic solution: objective 236.0000000
Presolve removed 934 rows and 0 columns
Presolve time: 0.01s
Presolved: 3690 rows, 900 columns, 8052 nonzeros
Variable types: 0 continuous, 900 integer (900 binary)

Root relaxation: objective 4.112857e+02, 1964 iterations, 0.05 seconds (0.11 work units)

    Nodes    |    Current Node    |     Objective Bounds      |     Work
 Expl Unexpl |  Obj  Depth IntInf | Incumbent    BestBd   Gap | It/Node Time

     0     0  411.28571    0  858  236.00000  411.28571  74.3%     -    0s
H    0     0                     343.0000000  411.28571  19.9%     -    0s
H    0     0                     371.0000000  403.07548  8.65%     -    0s
H    0     0                     373.0000000  403.07548  8.06%     -    0s
     0     0  402.96604    0  881  373.00000  402.96604  8.03%     -    0s
H    0     0                     374.0000000  402.96604  7.74%     -    0s
     0     0  402.95370    0  880  374.00000  402.95370  7.74%     -    0s
     0     0  402.95370    0  880  374.00000  402.95370  7.74%     -    0s
H    0     0                     375.0000000  398.34644  6.23%     -    0s
     0     0  398.34644    0  886  375.00000  398.34644  6.23%     -    0s
     0     0  398.12900    0  883  375.00000  398.12900  6.17%     -    0s
     0     0  398.09173    0  885  375.00000  398.09173  6.16%     -    0s
     0     0  398.08171    0  886  375.00000  398.08171  6.16%     -    0s
     0     0  398.08007    0  887  375.00000  398.08007  6.15%     -    0s
     0     0  396.98831    0  887  375.00000  396.98831  5.86%     -    0s
     0     0  396.71830    0  883  375.00000  396.71830  5.79%     -    0s
     0     0  396.70196    0  885  375.00000  396.70196  5.79%     -    0s
     0     0  396.68857    0  884  375.00000  396.68857  5.78%     -    0s
     0     0  396.68701    0  884  375.00000  396.68701  5.78%     -    0s
     0     0  395.30043    0  880  375.00000  395.30043  5.41%     -    0s
     0     0  395.19135    0  883  375.00000  395.19135  5.38%     -    0s
     0     0  395.16864    0  883  375.00000  395.16864  5.38%     -    0s
     0     0  395.16318    0  881  375.00000  395.16318  5.38%     -    0s
     0     0  395.16101    0  882  375.00000  395.16101  5.38%     -    0s
     0     0  394.54054    0  885  375.00000  394.54054  5.21%     -    0s
     0     0  394.44111    0  884  375.00000  394.44111  5.18%     -    0s
     0     0  394.41813    0  884  375.00000  394.41813  5.18%     -    0s
     0     0  394.40526    0  884  375.00000  394.40526  5.17%     -    0s
     0     0  394.40347    0  885  375.00000  394.40347  5.17%     -    0s
     0     0  394.08380    0  884  375.00000  394.08380  5.09%     -    0s
     0     0  394.07654    0  884  375.00000  394.07654  5.09%     -    0s
     0     0  394.07040    0  881  375.00000  394.07040  5.09%     -    0s
     0     0  394.06991    0  883  375.00000  394.06991  5.09%     -    0s
     0     0  393.85003    0  885  375.00000  393.85003  5.03%     -    1s
     0     0  393.76243    0  886  375.00000  393.76243  5.00%     -    1s
     0     0  393.74003    0  886  375.00000  393.74003  5.00%     -    1s
     0     0  393.73759    0  887  375.00000  393.73759  5.00%     -    1s
     0     0  393.48669    0  884  375.00000  393.48669  4.93%     -    1s
     0     0  393.45949    0  886  375.00000  393.45949  4.92%     -    1s
     0     0  393.45126    0  887  375.00000  393.45126  4.92%     -    1s
     0     0  393.45113    0  888  375.00000  393.45113  4.92%     -    1s
     0     0  393.24898    0  888  375.00000  393.24898  4.87%     -    1s
     0     0  393.20600    0  889  375.00000  393.20600  4.85%     -    1s
     0     0  393.19354    0  888  375.00000  393.19354  4.85%     -    1s
     0     0  393.19141    0  887  375.00000  393.19141  4.85%     -    1s
     0     0  393.00645    0  884  375.00000  393.00645  4.80%     -    1s
     0     0  392.97137    0  886  375.00000  392.97137  4.79%     -    1s
     0     0  392.96449    0  888  375.00000  392.96449  4.79%     -    1s
     0     0  392.96267    0  888  375.00000  392.96267  4.79%     -    1s
     0     0  392.96267    0  887  375.00000  392.96267  4.79%     -    1s
H    0     0                     376.0000000  392.96267  4.51%     -    1s
     0     2  392.96267    0  885  376.00000  392.96267  4.51%     -    1s
H   27    36                     377.0000000  392.38955  4.08%  1071    2s
H   81    65                     379.0000000  392.38634  3.53%   668    3s
H  137    63                     380.0000000  392.38634  3.26%   574    3s
   445   201  381.94524   24  791  380.00000  392.38634  3.26%   454    6s
  1659   863  384.39735   18  831  380.00000  388.17890  2.15%   362   10s
  5243  1551     cutoff   36       380.00000  384.41344  1.16%   327   15s

Cutting planes:
  Gomory: 1
  Zero half: 255
  RLT: 263
  BQP: 75

Explored 9100 nodes (2581734 simplex iterations) in 18.31 seconds (63.64 work units)
Thread count was 24 (of 24 available processors)

Solution count 10: 380 379 377 ... 236

Optimal solution found (tolerance 1.00e-04)
Best objective 3.800000000000e+02, best bound 3.800000000000e+02, gap 0.0000%

User-callback calls 21135, time in user-callback 0.01 sec
